(set-logic QF_S)
(declare-fun var0 () Bool)
(declare-fun var1 () String)
(declare-fun var2 () Int)
(declare-fun var3 () String)
(declare-fun var4 () Int)
(declare-fun var5 () Int)
(declare-fun var6 () Int)
(assert (not var0))
(assert (>= (str.indexof var1 "#Ncdh]" var2) (str.to.int (str.substr var3 var4 var5))))
(assert (<= var6 var6))
(assert (not (<= var5 var6)))
(check-sat)